
# ic010945x.cif

data_[VIVO(H2bzimpy)(H2O)2](CF3SO3)2.2H2O (2)

_audit_creation_method            SHELXL
_chemical_name_systematic
;
    ?
;
_chemical_name_common             ?
_chemical_formula_moiety          ?
_chemical_formula_structural      ?
_chemical_formula_analytical      ?
_chemical_formula_sum             'C21 H21 F6 N5 O11 S2 V'
_chemical_formula_weight          748.49
_chemical_melting_point           ?
_chemical_compound_source         ?

loop_
    _atom_type_symbol
    _atom_type_description
    _atom_type_scat_dispersion_real
    _atom_type_scat_dispersion_imag
    _atom_type_scat_source
    'C'  'C'   0.0033   0.0016
    'International Tables Vol C Tables 4.2.6.8 and 6.1.1.4'
    'H'  'H'   0.0000   0.0000
    'International Tables Vol C Tables 4.2.6.8 and 6.1.1.4'
    'N'  'N'   0.0061   0.0033
    'International Tables Vol C Tables 4.2.6.8 and 6.1.1.4'
    'O'  'O'   0.0106   0.0060
    'International Tables Vol C Tables 4.2.6.8 and 6.1.1.4'
    'F'  'F'   0.0171   0.0103
    'International Tables Vol C Tables 4.2.6.8 and 6.1.1.4'
    'S'  'S'   0.1246   0.1234
    'International Tables Vol C Tables 4.2.6.8 and 6.1.1.4'
    'V'  'V'   0.3005   0.5294
    'International Tables Vol C Tables 4.2.6.8 and 6.1.1.4'

_symmetry_cell_setting            ?
_symmetry_space_group_name_H-M    ?

loop_
    _symmetry_equiv_pos_as_xyz
    'x, y, z'
    '-x, -y, z'
    'x+1/4, -y+1/4, z+1/4'
    '-x+1/4, y+1/4, z+1/4'
    'x, y+1/2, z+1/2'
    '-x, -y+1/2, z+1/2'
    'x+1/4, -y+3/4, z+3/4'
    '-x+1/4, y+3/4, z+3/4'
    'x+1/2, y, z+1/2'
    '-x+1/2, -y, z+1/2'
    'x+3/4, -y+1/4, z+3/4'
    '-x+3/4, y+1/4, z+3/4'
    'x+1/2, y+1/2, z'
    '-x+1/2, -y+1/2, z'
    'x+3/4, -y+3/4, z+1/4'
    '-x+3/4, y+3/4, z+1/4'

_cell_length_a                    31.271(3)
_cell_length_b                    12.9341(15)
_cell_length_c                    14.6252(15)
_cell_angle_alpha                 90.00
_cell_angle_beta                  90.00
_cell_angle_gamma                 90.00
_cell_volume                      5915.4(11)
_cell_formula_units_Z             8
_cell_measurement_temperature     293(2)
_cell_measurement_reflns_used     ?
_cell_measurement_theta_min       ?
_cell_measurement_theta_max       ?

_exptl_crystal_description        ?
_exptl_crystal_colour             ?
_exptl_crystal_size_max           ?
_exptl_crystal_size_mid           ?
_exptl_crystal_size_min           ?
_exptl_crystal_density_meas       ?
_exptl_crystal_density_diffrn     1.681
_exptl_crystal_density_method     ?
_exptl_crystal_F_000              3032
_exptl_absorpt_coefficient_mu     0.579
_exptl_absorpt_correction_type    ?
_exptl_absorpt_correction_T_min   ?
_exptl_absorpt_correction_T_max   ?

_exptl_special_details
;
    ?
;

_diffrn_ambient_temperature       293(2)
_diffrn_radiation_wavelength      0.71073
_diffrn_radiation_type            MoK\a
_diffrn_radiation_source          'fine-focus sealed tube'
_diffrn_radiation_monochromator   graphite
_diffrn_measurement_device        ?
_diffrn_measurement_method        ?
_diffrn_standards_number          ?
_diffrn_standards_interval_count  ?
_diffrn_standards_interval_time   ?
_diffrn_standards_decay_%         ?
_diffrn_reflns_number             2235
_diffrn_reflns_av_R_equivalents   0.0000
_diffrn_reflns_av_sigmaI/netI     0.0323
_diffrn_reflns_limit_h_min        0
_diffrn_reflns_limit_h_max        43
_diffrn_reflns_limit_k_min        0
_diffrn_reflns_limit_k_max        18
_diffrn_reflns_limit_l_min        0
_diffrn_reflns_limit_l_max        20
_diffrn_reflns_theta_min          2.61
_diffrn_reflns_theta_max          29.98
_reflns_number_total              2235
_reflns_number_observed           1862
_reflns_observed_criterion        >2sigma(I)

_computing_data_collection        ?
_computing_cell_refinement        ?
_computing_data_reduction         ?
_computing_structure_solution     'SHELXS-86 (Sheldrick, 1990)'
_computing_structure_refinement   'SHELXL-93 (Sheldrick, 1993)'
_computing_molecular_graphics     ?
_computing_publication_material   ?

_refine_special_details
;
    Refinement on F^2^ for ALL reflections except for 0 with very negative F^2^
    or flagged by the user for potential systematic errors.  Weighted R-factors
    wR and all goodnesses of fit S are based on F^2^, conventional R-factors R
    are based on F, with F set to zero for negative F^2^. The observed criterion
    of F^2^ > 2sigma(F^2^) is used only for calculating _R_factor_obs 
etc. and is
    not relevant to the choice of reflections for refinement.  R-factors based
    on F^2^ are statistically about twice as large as those based on F, and R-
    factors based on ALL data will be even larger.
;

_refine_ls_structure_factor_coef  Fsqd
_refine_ls_matrix_type            full
_refine_ls_weighting_scheme
    'calc w=1/[\s^2^(Fo^2^)+(0.0648P)^2^+2.1921P] where P=(Fo^2^+2Fc^2^)/3'
_atom_sites_solution_primary      direct
_atom_sites_solution_secondary    difmap
_atom_sites_solution_hydrogens    geom
_refine_ls_hydrogen_treatment     ?
_refine_ls_extinction_method      SHELXL
_refine_ls_extinction_coef        0.00006(5)
_refine_ls_extinction_expression
    'Fc^*^=kFc[1+0.001xFc^2^\l^3^/sin(2\q)]^-1/4^'
_refine_ls_abs_structure_details
    'Flack H D (1983), Acta Cryst. A39, 876-881'
_refine_ls_abs_structure_Flack    -0.02(4)
_refine_ls_number_reflns          2235
_refine_ls_number_parameters      231
_refine_ls_number_restraints      1
_refine_ls_R_factor_all           0.0551
_refine_ls_R_factor_obs           0.0425
_refine_ls_wR_factor_all          0.1128
_refine_ls_wR_factor_obs          0.1035
_refine_ls_goodness_of_fit_all    1.061
_refine_ls_goodness_of_fit_obs    1.078
_refine_ls_restrained_S_all       1.060
_refine_ls_restrained_S_obs       1.077
_refine_ls_shift/esd_max          0.308
_refine_ls_shift/esd_mean         0.009

loop_
    _atom_site_label
    _atom_site_type_symbol
    _atom_site_fract_x
    _atom_site_fract_y
    _atom_site_fract_z
    _atom_site_U_iso_or_equiv
    _atom_site_thermal_displace_type
    _atom_site_occupancy
    _atom_site_calc_flag
    _atom_site_refinement_flags
    _atom_site_disorder_group
V V 0.0000 -0.5000 0.31920(5) 0.0299(2) Uani 1 d S .
S S 0.16499(3) -0.94645(8) 0.42790(7) 0.0407(2) Uani 1 d . .
F1 F 0.1762(2) -0.7756(4) 0.5163(4) 0.126(2) Uani 1 d . .
F2 F 0.1981(2) -0.7714(4) 0.3803(4) 0.117(2) Uani 1 d . .
F3 F 0.23367(11) -0.8536(3) 0.4833(4) 0.0913(12) Uani 1 d . .
O1W O 0.04946(15) -0.7624(3) 0.4147(3) 0.0737(11) Uani 1 d . .
H1W H 0.0720(20) -0.8075(55) 0.4025(51) 0.084(20) Uiso 1 d . .
O1 O 0.0000 -0.5000 0.4279(3) 0.0572(12) Uani 1 d S .
O2 O -0.00167(11) -0.6575(2) 0.3018(2) 0.0433(7) Uani 1 d . .
H1O H 0.0118(15) -0.6807(40) 0.3193(40) 0.033(14) Uiso 1 d . .
H2O H -0.0279(15) -0.6859(33) 0.2940(31) 0.033(10) Uiso 1 d . .
O11 O 0.12254(10) -0.9114(3) 0.4068(3) 0.0744(11) Uani 1 d . .
O12 O 0.18844(14) -0.9937(3) 0.3565(3) 0.0708(11) Uani 1 d . .
O13 O 0.16803(11) -1.0037(3) 0.5131(2) 0.0573(8) Uani 1 d . .
N N 0.0000 -0.5000 0.1658(3) 0.0302(8) Uani 1 d S .
N1 N 0.06457(9) -0.5027(2) 0.2758(2) 0.0325(6) Uani 1 d . .
N2 N 0.11493(9) -0.4981(2) 0.1685(2) 0.0378(6) Uani 1 d . .
H2B H 0.12672(9) -0.4957(2) 0.1154(2) 0.075(20) Uiso 1 calc R .
C C 0.1940(2) -0.8296(4) 0.4530(4) 0.0641(13) Uani 1 d . .
C1 C 0.0000 -0.5000 -0.0204(4) 0.0452(13) Uani 1 d S .
C2 C 0.03907(13) -0.4979(3) 0.0265(3) 0.0401(8) Uani 1 d . .
H2A H 0.06504(13) -0.4963(3) -0.0045(3) 0.045(14) Uiso 1 calc R .
C3 C 0.03718(11) -0.4981(3) 0.1210(2) 0.0313(6) Uani 1 d . .
C4 C 0.07272(10) -0.4989(2) 0.1861(2) 0.0311(6) Uani 1 d . .
C5 C 0.13584(11) -0.5018(3) 0.2519(3) 0.0377(7) Uani 1 d . .
C6 C 0.17946(15) -0.5048(4) 0.2725(4) 0.0514(11) Uani 1 d . .
H6A H 0.20041(15) -0.5035(4) 0.2274(4) 0.098(27) Uiso 1 calc R .
C7 C 0.1894(2) -0.5099(4) 0.3648(5) 0.0600(14) Uani 1 d . .
H7A H 0.2180(2) -0.5107(4) 0.3824(5) 0.091(22) Uiso 1 calc R .
C8 C 0.1578(2) -0.5138(4) 0.4317(4) 0.0569(11) Uani 1 d . .
H8A H 0.1661(2) -0.5183(4) 0.4926(4) 0.067(18) Uiso 1 calc R .
C9 C 0.11454(15) -0.5111(3) 0.4119(3) 0.0465(9) Uani 1 d . .
H9A H 0.09377(15) -0.5131(3) 0.4574(3) 0.051(15) Uiso 1 calc R .
C10 C 0.10401(10) -0.5052(3) 0.3186(3) 0.0344(6) Uani 1 d . .
H1 H 0.0000 -0.5000 -0.0811(349) 0.470(211) Uiso 1 d S .

loop_
    _atom_site_aniso_label
    _atom_site_aniso_U_11
    _atom_site_aniso_U_22
    _atom_site_aniso_U_33
    _atom_site_aniso_U_23
    _atom_site_aniso_U_13
    _atom_site_aniso_U_12
V 0.0283(3) 0.0395(4) 0.0218(3) 0.000 0.000 -0.0005(3)
S 0.0373(4) 0.0459(4) 0.0389(4) 0.0001(4) 0.0040(4) -0.0016(4)
F1 0.136(4) 0.089(3) 0.154(5) -0.069(3) 0.016(4) 0.002(3)
F2 0.152(4) 0.083(2) 0.116(4) 0.048(3) -0.018(3) -0.045(3)
F3 0.064(2) 0.083(2) 0.127(3) 0.001(2) -0.019(2) -0.020(2)
O1W 0.088(3) 0.084(3) 0.049(2) 0.008(2) -0.012(2) 0.035(2)
O1 0.061(3) 0.084(3) 0.027(2) 0.000 0.000 0.003(2)
O2 0.0380(15) 0.0408(14) 0.051(2) 0.0089(12) -0.0033(14) -0.0005(13)
O11 0.043(2) 0.091(3) 0.090(3) 0.009(2) -0.010(2) 0.004(2)
O12 0.081(3) 0.083(3) 0.048(2) -0.017(2) 0.019(2) 0.008(2)
O13 0.056(2) 0.063(2) 0.053(2) 0.016(2) 0.0144(15) 0.0056(15)
N 0.029(2) 0.035(2) 0.027(2) 0.000 0.000 0.0000(14)
N1 0.0302(13) 0.0385(14) 0.0289(14) 0.0004(11) -0.0026(10) -0.0014(12)
N2 0.0270(13) 0.047(2) 0.039(2) -0.0003(14) 0.0040(11) 0.0025(11)
C 0.070(3) 0.047(2) 0.075(4) -0.001(2) 0.005(3) -0.005(2)
C1 0.051(3) 0.060(3) 0.025(2) 0.000 0.000 0.001(3)
C2 0.040(2) 0.052(2) 0.029(2) 0.000(2) 0.0082(14) -0.001(2)
C3 0.0296(14) 0.036(2) 0.0283(13) 0.0021(14) 0.0023(12) -0.0002(12)
C4 0.0270(14) 0.0368(15) 0.0294(14) -0.0018(14) 0.0006(12) -0.0019(11)
C5 0.0291(15) 0.038(2) 0.046(2) 0.003(2) -0.0023(15) -0.0002(13)
C6 0.034(2) 0.055(2) 0.065(3) 0.002(2) -0.004(2) -0.003(2)
C7 0.038(2) 0.062(3) 0.080(4) 0.006(3) -0.022(2) 0.001(2)
C8 0.051(3) 0.066(3) 0.054(2) 0.003(3) -0.023(2) 0.000(2)
C9 0.048(2) 0.054(2) 0.038(2) 0.005(2) -0.009(2) -0.002(2)
C10 0.0308(13) 0.0366(14) 0.0357(14) 0.0025(14) -0.004(2) 0.0000(13)

_geom_special_details
;
    All esds (except the esd in the dihedral angle between two l.s. planes)
    are estimated using the full covariance matrix.  The cell esds are taken
    into account individually in the estimation of esds in distances, angles
    and torsion angles; correlations between esds in cell parameters are only
    used when they are defined by crystal symmetry.  An approximate (isotropic)
    treatment of cell esds is used for estimating esds involving l.s. planes.
;

loop_
    _geom_bond_atom_site_label_1
    _geom_bond_atom_site_label_2
    _geom_bond_distance
    _geom_bond_site_symmetry_2
    _geom_bond_publ_flag
V O1 1.590(5) . ?
V O2 2.053(3) 2_545 ?
V O2 2.053(3) . ?
V N1 2.117(3) 2_545 ?
V N1 2.117(3) . ?
V N 2.244(4) . ?
S O12 1.414(4) . ?
S O11 1.437(3) . ?
S O13 1.453(3) . ?
S C 1.800(5) . ?
F1 C 1.288(7) . ?
F2 C 1.309(7) . ?
F3 C 1.353(7) . ?
N C3 1.334(4) 2_545 ?
N C3 1.334(4) . ?
N1 C4 1.338(4) . ?
N1 C10 1.383(4) . ?
N2 C4 1.345(5) . ?
N2 C5 1.386(5) . ?
C1 C2 1.401(5) 2_545 ?
C1 C2 1.401(5) . ?
C2 C3 1.384(5) . ?
C3 C4 1.463(5) . ?
C5 C10 1.394(6) . ?
C5 C6 1.398(6) . ?
C6 C7 1.386(8) . ?
C7 C8 1.391(9) . ?
C8 C9 1.384(6) . ?
C9 C10 1.406(6) . ?

loop_
    _geom_angle_atom_site_label_1
    _geom_angle_atom_site_label_2
    _geom_angle_atom_site_label_3
    _geom_angle
    _geom_angle_site_symmetry_1
    _geom_angle_site_symmetry_3
    _geom_angle_publ_flag
O1 V O2 97.12(9) . 2_545 ?
O1 V O2 97.12(9) . . ?
O2 V O2 165.8(2) 2_545 . ?
O1 V N1 107.44(8) . 2_545 ?
O2 V N1 88.31(12) 2_545 2_545 ?
O2 V N1 87.44(13) . 2_545 ?
O1 V N1 107.44(8) . . ?
O2 V N1 87.43(13) 2_545 . ?
O2 V N1 88.31(12) . . ?
N1 V N1 145.1(2) 2_545 . ?
O1 V N 180.0 . . ?
O2 V N 82.88(9) 2_545 . ?
O2 V N 82.88(9) . . ?
N1 V N 72.56(8) 2_545 . ?
N1 V N 72.56(8) . . ?
O12 S O11 117.2(3) . . ?
O12 S O13 112.2(2) . . ?
O11 S O13 113.9(2) . . ?
O12 S C 104.6(3) . . ?
O11 S C 104.2(3) . . ?
O13 S C 102.7(3) . . ?
C3 N C3 121.3(4) 2_545 . ?
C3 N V 119.4(2) 2_545 . ?
C3 N V 119.4(2) . . ?
C4 N1 C10 105.9(3) . . ?
C4 N1 V 118.4(2) . . ?
C10 N1 V 135.7(3) . . ?
C4 N2 C5 107.1(3) . . ?
F1 C F2 108.3(5) . . ?
F1 C F3 106.6(6) . . ?
F2 C F3 108.0(5) . . ?
F1 C S 112.6(4) . . ?
F2 C S 111.6(5) . . ?
F3 C S 109.7(3) . . ?
C2 C1 C2 121.4(5) 2_545 . ?
C3 C2 C1 116.8(4) . . ?
N C3 C2 121.8(4) . . ?
N C3 C4 110.1(3) . . ?
C2 C3 C4 128.1(3) . . ?
N1 C4 N2 112.0(3) . . ?
N1 C4 C3 119.6(3) . . ?
N2 C4 C3 128.4(3) . . ?
N2 C5 C10 106.3(3) . . ?
N2 C5 C6 130.6(4) . . ?
C10 C5 C6 123.1(4) . . ?
C7 C6 C5 115.4(4) . . ?
C6 C7 C8 121.8(4) . . ?
C9 C8 C7 123.1(5) . . ?
C8 C9 C10 115.7(4) . . ?
N1 C10 C5 108.7(4) . . ?
N1 C10 C9 130.5(4) . . ?
C5 C10 C9 120.9(3) . . ?

_refine_diff_density_max    0.450
_refine_diff_density_min   -0.294
_refine_diff_density_rms    0.077

#===END

data_[(H3ntb)VIVO(m-O)VVO(H3ntb)](CF3SO3)3.2H2O (8)

_audit_creation_method            SHELXL
_chemical_name_systematic
;
    ?
;
_chemical_name_common             ?
_chemical_formula_moiety          ?
_chemical_formula_structural      ?
_chemical_formula_analytical      ?
_chemical_formula_sum             'C51 H48 F9 N14 O15 S3 V2'
_chemical_formula_weight          1466.09
_chemical_melting_point           ?
_chemical_compound_source         ?

loop_
    _atom_type_symbol
    _atom_type_description
    _atom_type_scat_dispersion_real
    _atom_type_scat_dispersion_imag
    _atom_type_scat_source
    'C'  'C'   0.0033   0.0016
    'International Tables Vol C Tables 4.2.6.8 and 6.1.1.4'
    'H'  'H'   0.0000   0.0000
    'International Tables Vol C Tables 4.2.6.8 and 6.1.1.4'
    'N'  'N'   0.0061   0.0033
    'International Tables Vol C Tables 4.2.6.8 and 6.1.1.4'
    'O'  'O'   0.0106   0.0060
    'International Tables Vol C Tables 4.2.6.8 and 6.1.1.4'
    'F'  'F'   0.0171   0.0103
    'International Tables Vol C Tables 4.2.6.8 and 6.1.1.4'
    'S'  'S'   0.1246   0.1234
    'International Tables Vol C Tables 4.2.6.8 and 6.1.1.4'
    'V'  'V'   0.3005   0.5294
    'International Tables Vol C Tables 4.2.6.8 and 6.1.1.4'

_symmetry_cell_setting            ?
_symmetry_space_group_name_H-M    ?

loop_
    _symmetry_equiv_pos_as_xyz
    'x, y, z'
    '-x, y+1/2, -z'
    '-x, -y, -z'
    'x, -y-1/2, z'

_cell_length_a                    11.505(2)
_cell_length_b                    21.376(4)
_cell_length_c                    13.547(2)
_cell_angle_alpha                 90.00
_cell_angle_beta                  109.274(14)
_cell_angle_gamma                 90.00
_cell_volume                      3145.1(10)
_cell_formula_units_Z             2
_cell_measurement_temperature     293(2)
_cell_measurement_reflns_used     ?
_cell_measurement_theta_min       ?
_cell_measurement_theta_max       ?

_exptl_crystal_description        ?
_exptl_crystal_colour             ?
_exptl_crystal_size_max           ?
_exptl_crystal_size_mid           ?
_exptl_crystal_size_min           ?
_exptl_crystal_density_meas       ?
_exptl_crystal_density_diffrn     1.548
_exptl_crystal_density_method     ?
_exptl_crystal_F_000              1494
_exptl_absorpt_coefficient_mu     0.498
_exptl_absorpt_correction_type    ?
_exptl_absorpt_correction_T_min   ?
_exptl_absorpt_correction_T_max   ?

_exptl_special_details
;
    ?
;

_diffrn_ambient_temperature       293(2)
_diffrn_radiation_wavelength      0.71073
_diffrn_radiation_type            MoK\a
_diffrn_radiation_source          'fine-focus sealed tube'
_diffrn_radiation_monochromator   graphite
_diffrn_measurement_device        ?
_diffrn_measurement_method        ?
_diffrn_standards_number          ?
_diffrn_standards_interval_count  ?
_diffrn_standards_interval_time   ?
_diffrn_standards_decay_%         ?
_diffrn_reflns_number             7760
_diffrn_reflns_av_R_equivalents   0.0632
_diffrn_reflns_av_sigmaI/netI     0.1140
_diffrn_reflns_limit_h_min        0
_diffrn_reflns_limit_h_max        14
_diffrn_reflns_limit_k_min        0
_diffrn_reflns_limit_k_max        27
_diffrn_reflns_limit_l_min        -17
_diffrn_reflns_limit_l_max        16
_diffrn_reflns_theta_min          2.48
_diffrn_reflns_theta_max          27.50
_reflns_number_total              7406
_reflns_number_observed           3000
_reflns_observed_criterion        >2sigma(I)

_computing_data_collection        ?
_computing_cell_refinement        ?
_computing_data_reduction         ?
_computing_structure_solution     'SHELXS-86 (Sheldrick, 1990)'
_computing_structure_refinement   'SHELXL-93 (Sheldrick, 1993)'
_computing_molecular_graphics     ?
_computing_publication_material   ?

_refine_special_details
;
    Refinement on F^2^ for ALL reflections except for 4 with very negative F^2^
    or flagged by the user for potential systematic errors.  Weighted R-factors
    wR and all goodnesses of fit S are based on F^2^, conventional R-factors R
    are based on F, with F set to zero for negative F^2^. The observed criterion
    of F^2^ > 2sigma(F^2^) is used only for calculating _R_factor_obs 
etc. and is
    not relevant to the choice of reflections for refinement.  R-factors based
    on F^2^ are statistically about twice as large as those based on F, and R-
    factors based on ALL data will be even larger.
;

_refine_ls_structure_factor_coef  Fsqd
_refine_ls_matrix_type            full
_refine_ls_weighting_scheme
    'calc w=1/[\s^2^(Fo^2^)+(0.1278P)^2^+4.7640P] where P=(Fo^2^+2Fc^2^)/3'
_atom_sites_solution_primary      direct
_atom_sites_solution_secondary    difmap
_atom_sites_solution_hydrogens    geom
_refine_ls_hydrogen_treatment     ?
_refine_ls_extinction_method      none
_refine_ls_extinction_coef        ?
_refine_ls_number_reflns          7402
_refine_ls_number_parameters      466
_refine_ls_number_restraints      0
_refine_ls_R_factor_all           0.2192
_refine_ls_R_factor_obs           0.0942
_refine_ls_wR_factor_all          0.3172
_refine_ls_wR_factor_obs          0.2245
_refine_ls_goodness_of_fit_all    1.028
_refine_ls_goodness_of_fit_obs    1.172
_refine_ls_restrained_S_all       1.031
_refine_ls_restrained_S_obs       1.172
_refine_ls_shift/esd_max          -0.534
_refine_ls_shift/esd_mean         0.026

loop_
    _atom_site_label
    _atom_site_type_symbol
    _atom_site_fract_x
    _atom_site_fract_y
    _atom_site_fract_z
    _atom_site_U_iso_or_equiv
    _atom_site_thermal_displace_type
    _atom_site_occupancy
    _atom_site_calc_flag
    _atom_site_refinement_flags
    _atom_site_disorder_group
V V 0.54784(10) 0.50973(5) 0.38393(9) 0.0458(4) Uani 1 d . .
S1 S 0.1492(4) 0.2500 0.2031(3) 0.0941(12) Uani 1 d S .
S2 S 0.6026(5) 0.2500 0.0232(5) 0.125(2) Uani 1 d S .
S3 S 0.9775(6) 0.2500 0.6462(5) 0.137(2) Uani 1 d S .
F11 F -0.0085(16) 0.2500 0.0154(11) 0.207(7) Uani 1 d S .
F12 F 0.1565(12) 0.3002(5) 0.0341(7) 0.208(5) Uani 1 d . .
F21 F 0.7067(16) 0.2500 -0.1190(13) 0.192(6) Uani 1 d S .
F22 F 0.5509(13) 0.1990(7) -0.1590(12) 0.284(7) Uani 1 d . .
F31 F 1.1242(44) 0.2500 0.7988(19) 0.443(25) Uani 1 d S .
F32 F 1.1785(15) 0.1986(8) 0.6774(14) 0.345(9) Uani 1 d . .
O O 0.5000 0.5000 0.5000 0.049(2) Uani 1 d S .
O1 O 0.5547(4) 0.5836(2) 0.3710(4) 0.0556(13) Uani 1 d . .
O1W O 0.7753(13) 0.2500 0.3686(15) 0.195(7) Uani 1 d S .
O2W O 0.8427(43) 0.3026(16) 0.2049(43) 0.740(34) Uani 1 d . .
O11 O 0.2813(11) 0.2500 0.2431(11) 0.154(5) Uani 1 d S .
O12 O 0.0934(7) 0.3066(3) 0.2223(7) 0.128(3) Uani 1 d . .
O21 O 0.4778(18) 0.2500 0.0094(23) 0.280(13) Uani 1 d S .
O22 O 0.6597(12) 0.3056(4) 0.0578(9) 0.186(5) Uani 1 d . .
O31 O 0.9829(40) 0.2500 0.5350(14) 0.414(24) Uani 1 d S .
O32 O 0.9407(12) 0.3058(5) 0.6689(11) 0.212(5) Uani 1 d . .
N N 0.5461(5) 0.3961(2) 0.3774(4) 0.0501(14) Uani 1 d . .
N1A N 0.5977(5) 0.4865(3) 0.2518(4) 0.0468(13) Uani 1 d . .
N2A N 0.6321(5) 0.4208(3) 0.1381(4) 0.057(2) Uani 1 d . .
H2AB H 0.6390(5) 0.3861(3) 0.1085(4) 0.061(22) Uiso 1 calc R .
N1B N 0.3718(5) 0.4857(3) 0.2959(4) 0.0489(13) Uani 1 d . .
N2B N 0.2155(6) 0.4209(3) 0.2436(5) 0.062(2) Uani 1 d . .
H2BB H 0.1745(6) 0.3865(3) 0.2351(5) 0.033(17) Uiso 1 calc R .
N1C N 0.7208(5) 0.4836(3) 0.4749(4) 0.0483(13) Uani 1 d . .
N2C N 0.8536(6) 0.4168(3) 0.5768(5) 0.059(2) Uani 1 d . .
H2CB H 0.8842(6) 0.3821(3) 0.6062(5) 0.051(21) Uiso 1 calc R .
C1 C 0.1095(27) 0.2500 0.0572(16) 0.129(7) Uani 1 d S .
C2 C 0.5848(43) 0.2500 -0.1103(26) 0.206(15) Uani 1 d S .
C3 C 1.1632(33) 0.2500 0.7277(44) 0.240(24) Uani 1 d S .
C1A C 0.6277(6) 0.5210(4) 0.1754(5) 0.048(2) Uani 1 d . .
C2A C 0.6382(7) 0.5846(4) 0.1639(6) 0.061(2) Uani 1 d . .
H2AA H 0.6247(7) 0.6126(4) 0.2115(6) 0.036(16) Uiso 1 calc R .
C3A C 0.6694(8) 0.6057(4) 0.0796(6) 0.074(2) Uani 1 d . .
H3AA H 0.6782(8) 0.6483(4) 0.0704(6) 0.129(40) Uiso 1 calc R .
C4A C 0.6879(8) 0.5628(5) 0.0075(7) 0.078(3) Uani 1 d . .
H4AA H 0.7055(8) 0.5782(5) -0.0502(7) 0.077(25) Uiso 1 calc R .
C5A C 0.6812(7) 0.4993(5) 0.0190(6) 0.072(2) Uani 1 d . .
H5AA H 0.6965(7) 0.4712(5) -0.0278(6) 0.118(37) Uiso 1 calc R .
C6A C 0.6502(6) 0.4793(3) 0.1047(5) 0.053(2) Uani 1 d . .
C7A C 0.6017(7) 0.4270(3) 0.2247(5) 0.053(2) Uani 1 d . .
C8A C 0.5759(9) 0.3737(4) 0.2855(6) 0.067(2) Uani 1 d . .
H8AA H 0.5074(9) 0.3494(4) 0.2409(6) 0.062(22) Uiso 1 calc R .
H8AB H 0.6474(9) 0.3465(4) 0.3085(6) 0.095(30) Uiso 1 calc R .
C1B C 0.2685(6) 0.5191(4) 0.2337(5) 0.052(2) Uani 1 d . .
C2B C 0.2544(8) 0.5818(4) 0.2054(6) 0.064(2) Uani 1 d . .
H2BA H 0.3204(8) 0.6096(4) 0.2266(6) 0.059(22) Uiso 1 calc R .
C3B C 0.1414(9) 0.6009(5) 0.1461(7) 0.080(3) Uani 1 d . .
H3BA H 0.1293(9) 0.6427(5) 0.1264(7) 0.087(30) Uiso 1 calc R .
C4B C 0.0431(10) 0.5603(6) 0.1138(8) 0.093(3) Uani 1 d . .
H4BA H -0.0334(10) 0.5756(6) 0.0732(8) 0.132(41) Uiso 1 calc R .
C5B C 0.0541(8) 0.4984(6) 0.1394(6) 0.082(3) Uani 1 d . .
H5BA H -0.0125(8) 0.4711(6) 0.1168(6) 0.077(27) Uiso 1 calc R .
C6B C 0.1699(7) 0.4782(4) 0.2007(6) 0.062(2) Uani 1 d . .
C7B C 0.3344(7) 0.4278(3) 0.3008(5) 0.053(2) Uani 1 d . .
C8B C 0.4173(7) 0.3803(3) 0.3693(6) 0.055(2) Uani 1 d . .
H8BA H 0.4085(7) 0.3808(3) 0.4381(6) 0.048(18) Uiso 1 calc R .
H8BB H 0.3963(7) 0.3389(3) 0.3397(6) 0.040(16) Uiso 1 calc R .
C1C C 0.8278(6) 0.5172(4) 0.5272(5) 0.051(2) Uani 1 d . .
C2C C 0.8582(7) 0.5795(4) 0.5257(6) 0.062(2) Uani 1 d . .
H2CA H 0.8033(7) 0.6079(4) 0.4827(6) 0.033(16) Uiso 1 calc R .
C3C C 0.9717(8) 0.5980(5) 0.5898(7) 0.076(3) Uani 1 d . .
H3CA H 0.9942(8) 0.6399(5) 0.5912(7) 0.073(25) Uiso 1 calc R .
C4C C 1.0551(8) 0.5547(6) 0.6535(7) 0.084(3) Uani 1 d . .
H4CA H 1.1313(8) 0.5690(6) 0.6966(7) 0.061(22) Uiso 1 calc R .
C5C C 1.0292(7) 0.4925(5) 0.6548(7) 0.074(2) Uani 1 d . .
H5CA H 1.0862(7) 0.4641(5) 0.6956(7) 0.064(24) Uiso 1 calc R .
C6C C 0.9129(7) 0.4742(4) 0.5918(6) 0.057(2) Uani 1 d . .
C7C C 0.7403(7) 0.4249(3) 0.5082(6) 0.051(2) Uani 1 d . .
C8C C 0.6389(7) 0.3766(3) 0.4774(6) 0.062(2) Uani 1 d . .
H8CA H 0.6725(7) 0.3361(3) 0.4693(6) 0.062(21) Uiso 1 calc R .
H8CB H 0.6010(7) 0.3733(3) 0.5314(6) 0.060(21) Uiso 1 calc R .

loop_
    _atom_site_aniso_label
    _atom_site_aniso_U_11
    _atom_site_aniso_U_22
    _atom_site_aniso_U_33
    _atom_site_aniso_U_23
    _atom_site_aniso_U_13
    _atom_site_aniso_U_12
V 0.0473(7) 0.0403(6) 0.0517(7) -0.0031(5) 0.0186(5) -0.0017(5)
S1 0.109(3) 0.064(2) 0.104(3) 0.000 0.027(2) 0.000
S2 0.147(4) 0.057(2) 0.196(5) 0.000 0.090(4) 0.000
S3 0.165(5) 0.061(3) 0.171(5) 0.000 0.037(4) 0.000
F11 0.166(12) 0.220(17) 0.167(12) 0.000 -0.036(10) 0.000
F12 0.316(14) 0.157(8) 0.164(8) 0.052(6) 0.095(9) -0.028(8)
F21 0.220(15) 0.171(13) 0.231(15) 0.000 0.138(13) 0.000
F22 0.315(16) 0.243(13) 0.329(16) -0.129(12) 0.152(13) -0.130(12)
F31 0.638(70) 0.470(48) 0.183(20) 0.000 0.084(29) 0.000
F32 0.292(17) 0.364(22) 0.361(20) -0.001(16) 0.083(15) 0.142(15)
O 0.052(4) 0.053(4) 0.047(3) -0.003(3) 0.021(3) -0.003(3)
O1 0.066(3) 0.046(3) 0.060(3) 0.003(2) 0.027(3) -0.001(2)
O1W 0.119(11) 0.157(13) 0.273(20) 0.000 0.016(12) 0.000
O2W 0.733(74) 0.560(67) 1.012(84) -0.276(56) 0.402(70) -0.104(47)
O11 0.095(9) 0.137(11) 0.187(13) 0.000 -0.011(9) 0.000
O12 0.134(7) 0.078(5) 0.194(8) -0.034(5) 0.084(6) -0.006(4)
O21 0.215(20) 0.220(20) 0.520(39) 0.000 0.277(25) 0.000
O22 0.269(13) 0.096(6) 0.205(11) -0.059(7) 0.095(10) -0.039(8)
O31 0.801(73) 0.288(30) 0.100(13) 0.000 0.076(25) 0.000
O32 0.257(14) 0.094(7) 0.277(14) 0.028(8) 0.079(11) 0.068(8)
N 0.057(4) 0.040(3) 0.056(4) -0.006(3) 0.023(3) -0.002(3)
N1A 0.049(3) 0.046(3) 0.048(3) -0.002(3) 0.019(3) 0.000(3)
N2A 0.062(4) 0.058(4) 0.052(4) -0.017(3) 0.022(3) 0.001(3)
N1B 0.051(3) 0.050(3) 0.046(3) -0.005(3) 0.017(3) -0.007(3)
N2B 0.057(4) 0.071(5) 0.061(4) -0.015(3) 0.024(3) -0.025(4)
N1C 0.046(3) 0.046(3) 0.056(3) -0.003(3) 0.022(3) -0.008(3)
N2C 0.056(4) 0.066(4) 0.059(4) 0.009(3) 0.023(3) 0.016(3)
C1 0.186(24) 0.092(13) 0.118(16) 0.000 0.064(17) 0.000
C2 0.386(52) 0.068(13) 0.210(30) 0.000 0.163(34) 0.000
C3 0.241(35) 0.059(12) 0.514(77) 0.000 0.252(48) 0.000
C1A 0.039(4) 0.065(5) 0.041(4) -0.002(3) 0.014(3) 0.000(3)
C2A 0.062(5) 0.061(5) 0.069(5) 0.006(4) 0.033(4) 0.009(4)
C3A 0.085(6) 0.075(6) 0.073(6) 0.015(5) 0.042(5) 0.000(5)
C4A 0.079(6) 0.103(8) 0.060(5) 0.012(5) 0.032(5) -0.004(5)
C5A 0.067(5) 0.108(8) 0.048(4) -0.002(5) 0.030(4) -0.001(5)
C6A 0.050(4) 0.056(4) 0.052(4) 0.001(4) 0.015(3) 0.000(3)
C7A 0.056(4) 0.053(4) 0.052(4) -0.008(3) 0.022(4) 0.001(3)
C8A 0.090(6) 0.053(4) 0.065(5) -0.011(4) 0.036(5) 0.001(5)
C1B 0.045(4) 0.071(5) 0.042(4) -0.006(4) 0.017(3) 0.003(4)
C2B 0.060(5) 0.080(6) 0.053(5) 0.004(4) 0.020(4) 0.008(5)
C3B 0.068(6) 0.099(8) 0.069(6) 0.010(5) 0.015(5) 0.020(6)
C4B 0.070(7) 0.132(10) 0.069(6) 0.007(6) 0.012(5) 0.026(7)
C5B 0.056(5) 0.129(9) 0.054(5) -0.008(6) 0.011(4) -0.012(6)
C6B 0.055(5) 0.087(6) 0.047(4) -0.010(4) 0.023(4) -0.009(4)
C7B 0.052(5) 0.059(4) 0.052(4) -0.011(3) 0.024(4) -0.013(4)
C8B 0.061(5) 0.048(4) 0.060(5) -0.007(3) 0.023(4) -0.018(4)
C1C 0.048(4) 0.063(5) 0.050(4) -0.004(4) 0.024(3) 0.006(4)
C2C 0.056(5) 0.065(5) 0.073(5) -0.008(4) 0.032(4) -0.003(4)
C3C 0.059(6) 0.097(7) 0.082(6) -0.039(5) 0.037(5) -0.035(5)
C4C 0.044(5) 0.138(10) 0.075(6) -0.037(7) 0.024(5) -0.018(6)
C5C 0.045(5) 0.110(8) 0.067(5) -0.008(5) 0.018(4) 0.006(5)
C6C 0.047(4) 0.074(5) 0.061(5) 0.000(4) 0.033(4) 0.005(4)
C7C 0.049(4) 0.056(4) 0.056(4) 0.000(3) 0.028(4) 0.004(4)
C8C 0.067(5) 0.051(4) 0.070(5) 0.007(4) 0.025(4) 0.008(4)

_geom_special_details
;
    All esds (except the esd in the dihedral angle between two l.s. planes)
    are estimated using the full covariance matrix.  The cell esds are taken
    into account individually in the estimation of esds in distances, angles
    and torsion angles; correlations between esds in cell parameters are only
    used when they are defined by crystal symmetry.  An approximate (isotropic)
    treatment of cell esds is used for estimating esds involving l.s. planes.
;

loop_
    _geom_bond_atom_site_label_1
    _geom_bond_atom_site_label_2
    _geom_bond_distance
    _geom_bond_site_symmetry_2
    _geom_bond_publ_flag
V O1 1.594(5) . ?
V O 1.8412(11) . ?
V N1C 2.043(6) . ?
V N1B 2.048(6) . ?
V N1A 2.111(5) . ?
V N 2.430(5) . ?
S1 O12 1.432(7) 4_565 ?
S1 O12 1.432(7) . ?
S1 O11 1.436(12) . ?
S1 C1 1.88(2) . ?
S2 O22 1.364(9) 4_565 ?
S2 O22 1.364(9) . ?
S2 O21 1.39(2) . ?
S2 C2 1.75(3) . ?
S3 O32 1.334(10) . ?
S3 O32 1.334(10) 4_565 ?
S3 O31 1.53(2) . ?
S3 C3 2.06(4) . ?
F11 C1 1.29(2) . ?
F12 C1 1.286(14) . ?
F21 C2 1.45(4) . ?
F22 C2 1.27(2) . ?
F31 C3 1.19(4) . ?
F32 C3 1.33(3) . ?
O V 1.8413(11) 3_666 ?
N C8A 1.477(9) . ?
N C8C 1.481(9) . ?
N C8B 1.488(8) . ?
N1A C7A 1.330(8) . ?
N1A C1A 1.403(8) . ?
N2A C7A 1.336(8) . ?
N2A C6A 1.369(9) . ?
N1B C7B 1.319(8) . ?
N1B C1B 1.404(9) . ?
N2B C7B 1.339(9) . ?
N2B C6B 1.383(10) . ?
N1C C7C 1.328(8) . ?
N1C C1C 1.399(9) . ?
N2C C7C 1.339(9) . ?
N2C C6C 1.387(10) . ?
C1 F12 1.286(14) 4_565 ?
C2 F22 1.27(2) 4_565 ?
C3 F32 1.33(3) 4_565 ?
C1A C2A 1.379(10) . ?
C1A C6A 1.394(10) . ?
C2A C3A 1.380(10) . ?
C3A C4A 1.405(12) . ?
C4A C5A 1.373(12) . ?
C5A C6A 1.389(10) . ?
C7A C8A 1.493(10) . ?
C1B C6B 1.385(10) . ?
C1B C2B 1.389(11) . ?
C2B C3B 1.346(11) . ?
C3B C4B 1.378(14) . ?
C4B C5B 1.363(13) . ?
C5B C6B 1.386(12) . ?
C7B C8B 1.490(10) . ?
C1C C2C 1.379(10) . ?
C1C C6C 1.416(10) . ?
C2C C3C 1.367(11) . ?
C3C C4C 1.406(13) . ?
C4C C5C 1.363(13) . ?
C5C C6C 1.385(11) . ?
C7C C8C 1.509(10) . ?

loop_
    _geom_angle_atom_site_label_1
    _geom_angle_atom_site_label_2
    _geom_angle_atom_site_label_3
    _geom_angle
    _geom_angle_site_symmetry_1
    _geom_angle_site_symmetry_3
    _geom_angle_publ_flag
O1 V O 104.2(2) . . ?
O1 V N1C 105.3(2) . . ?
O V N1C 87.72(15) . . ?
O1 V N1B 105.1(2) . . ?
O V N1B 87.26(15) . . ?
N1C V N1B 149.6(2) . . ?
O1 V N1A 95.9(2) . . ?
O V N1A 159.9(2) . . ?
N1C V N1A 87.9(2) . . ?
N1B V N1A 86.6(2) . . ?
O1 V N 170.5(2) . . ?
O V N 85.23(14) . . ?
N1C V N 75.1(2) . . ?
N1B V N 74.6(2) . . ?
N1A V N 74.7(2) . . ?
O12 S1 O12 115.2(7) 4_565 . ?
O12 S1 O11 114.4(4) 4_565 . ?
O12 S1 O11 114.4(4) . . ?
O12 S1 C1 102.9(6) 4_565 . ?
O12 S1 C1 102.9(6) . . ?
O11 S1 C1 104.9(11) . . ?
O22 S2 O22 121.2(12) 4_565 . ?
O22 S2 O21 114.0(7) 4_565 . ?
O22 S2 O21 114.0(7) . . ?
O22 S2 C2 103.5(9) 4_565 . ?
O22 S2 C2 103.5(9) . . ?
O21 S2 C2 95.6(19) . . ?
O32 S3 O32 126.5(13) . 4_565 ?
O32 S3 O31 110.3(8) . . ?
O32 S3 O31 110.3(8) 4_565 . ?
O32 S3 C3 103.2(8) . . ?
O32 S3 C3 103.2(8) 4_565 . ?
O31 S3 C3 99.0(20) . . ?
V O V 179.999(1) . 3_666 ?
C8A N C8C 112.4(6) . . ?
C8A N C8B 111.5(6) . . ?
C8C N C8B 113.8(6) . . ?
C8A N V 110.7(4) . . ?
C8C N V 104.7(4) . . ?
C8B N V 103.0(4) . . ?
C7A N1A C1A 105.1(5) . . ?
C7A N1A V 120.2(4) . . ?
C1A N1A V 134.7(5) . . ?
C7A N2A C6A 108.2(6) . . ?
C7B N1B C1B 106.3(6) . . ?
C7B N1B V 118.8(5) . . ?
C1B N1B V 134.5(5) . . ?
C7B N2B C6B 108.5(6) . . ?
C7C N1C C1C 107.0(6) . . ?
C7C N1C V 119.1(5) . . ?
C1C N1C V 133.2(5) . . ?
C7C N2C C6C 107.8(6) . . ?
F11 C1 F12 111.1(15) . 4_565 ?
F11 C1 F12 111.1(15) . . ?
F12 C1 F12 113.1(22) 4_565 . ?
F11 C1 S1 108.6(16) . . ?
F12 C1 S1 106.3(12) 4_565 . ?
F12 C1 S1 106.3(12) . . ?
F22 C2 F22 118.6(36) . 4_565 ?
F22 C2 F21 95.6(20) . . ?
F22 C2 F21 95.6(20) 4_565 . ?
F22 C2 S2 116.7(15) . . ?
F22 C2 S2 116.7(15) 4_565 . ?
F21 C2 S2 107.3(28) . . ?
F31 C3 F32 124.2(17) . . ?
F31 C3 F32 124.2(17) . 4_565 ?
F32 C3 F32 110.8(40) . 4_565 ?
F31 C3 S3 80.3(28) . . ?
F32 C3 S3 90.9(25) . . ?
F32 C3 S3 90.9(25) 4_565 . ?
C2A C1A C6A 120.6(7) . . ?
C2A C1A N1A 130.9(6) . . ?
C6A C1A N1A 108.5(6) . . ?
C1A C2A C3A 118.1(8) . . ?
C2A C3A C4A 120.2(9) . . ?
C5A C4A C3A 122.6(8) . . ?
C4A C5A C6A 116.0(8) . . ?
N2A C6A C5A 131.7(7) . . ?
N2A C6A C1A 105.9(6) . . ?
C5A C6A C1A 122.4(7) . . ?
N1A C7A N2A 112.3(6) . . ?
N1A C7A C8A 123.1(6) . . ?
N2A C7A C8A 124.5(6) . . ?
N C8A C7A 111.2(6) . . ?
C6B C1B C2B 120.8(8) . . ?
C6B C1B N1B 108.3(7) . . ?
C2B C1B N1B 130.9(7) . . ?
C3B C2B C1B 117.2(9) . . ?
C2B C3B C4B 122.0(10) . . ?
C5B C4B C3B 122.2(10) . . ?
C4B C5B C6B 116.5(9) . . ?
N2B C6B C5B 133.2(8) . . ?
N2B C6B C1B 105.5(7) . . ?
C5B C6B C1B 121.3(9) . . ?
N1B C7B N2B 111.3(7) . . ?
N1B C7B C8B 121.2(6) . . ?
N2B C7B C8B 127.3(7) . . ?
N C8B C7B 108.0(6) . . ?
C2C C1C N1C 132.3(7) . . ?
C2C C1C C6C 120.6(7) . . ?
N1C C1C C6C 107.0(7) . . ?
C3C C2C C1C 117.6(9) . . ?
C2C C3C C4C 121.0(9) . . ?
C5C C4C C3C 122.8(9) . . ?
C4C C5C C6C 116.0(9) . . ?
C5C C6C N2C 132.0(8) . . ?
C5C C6C C1C 121.9(8) . . ?
N2C C6C C1C 106.1(7) . . ?
N1C C7C N2C 112.0(6) . . ?
N1C C7C C8C 121.6(6) . . ?
N2C C7C C8C 126.2(7) . . ?
N C8C C7C 108.6(6) . . ?

_refine_diff_density_max    0.903
_refine_diff_density_min   -0.440
_refine_diff_density_rms    0.087


#===END

data_[VIVO(H3ntb)Cl]+ in [VIVO(H3ntb)Cl]Cl.H2O (7)

_audit_creation_method            SHELXL
_chemical_name_systematic
;
    ?
;
_chemical_name_common             ?
_chemical_formula_moiety          ?
_chemical_formula_structural      ?
_chemical_formula_analytical      ?
_chemical_formula_sum             'C20 H20 Cl3 N4 O2 V'
_chemical_formula_weight          505.69
_chemical_melting_point           ?
_chemical_compound_source         ?

loop_
    _atom_type_symbol
    _atom_type_description
    _atom_type_scat_dispersion_real
    _atom_type_scat_dispersion_imag
    _atom_type_scat_source
    'C'  'C'   0.0033   0.0016
    'International Tables Vol C Tables 4.2.6.8 and 6.1.1.4'
    'H'  'H'   0.0000   0.0000
    'International Tables Vol C Tables 4.2.6.8 and 6.1.1.4'
    'N'  'N'   0.0061   0.0033
    'International Tables Vol C Tables 4.2.6.8 and 6.1.1.4'
    'O'  'O'   0.0106   0.0060
    'International Tables Vol C Tables 4.2.6.8 and 6.1.1.4'
    'Cl'  'Cl'   0.1484   0.1585
    'International Tables Vol C Tables 4.2.6.8 and 6.1.1.4'
    'V'  'V'   0.3005   0.5294
    'International Tables Vol C Tables 4.2.6.8 and 6.1.1.4'

_symmetry_cell_setting            ?
_symmetry_space_group_name_H-M    ?

loop_
    _symmetry_equiv_pos_as_xyz
    'x, y, z'
    '-x, -y, -z'

_cell_length_a                    7.981(2)
_cell_length_b                    9.842(2)
_cell_length_c                    18.473(4)
_cell_angle_alpha                 74.864(12)
_cell_angle_beta                  78.91(2)
_cell_angle_gamma                 79.277(14)
_cell_volume                      1360.3(6)
_cell_formula_units_Z             2
_cell_measurement_temperature     293(2)
_cell_measurement_reflns_used     ?
_cell_measurement_theta_min       ?
_cell_measurement_theta_max       ?

_exptl_crystal_description        ?
_exptl_crystal_colour             ?
_exptl_crystal_size_max           ?
_exptl_crystal_size_mid           ?
_exptl_crystal_size_min           ?
_exptl_crystal_density_meas       ?
_exptl_crystal_density_diffrn     1.235
_exptl_crystal_density_method     ?
_exptl_crystal_F_000              516
_exptl_absorpt_coefficient_mu     0.679
_exptl_absorpt_correction_type    ?
_exptl_absorpt_correction_T_min   ?
_exptl_absorpt_correction_T_max   ?

_exptl_special_details
;
    ?
;

_diffrn_ambient_temperature       293(2)
_diffrn_radiation_wavelength      0.71073
_diffrn_radiation_type            MoK\a
_diffrn_radiation_source          'fine-focus sealed tube'
_diffrn_radiation_monochromator   graphite
_diffrn_measurement_device        ?
_diffrn_measurement_method        ?
_diffrn_standards_number          ?
_diffrn_standards_interval_count  ?
_diffrn_standards_interval_time   ?
_diffrn_standards_decay_%         ?
_diffrn_reflns_number             6526
_diffrn_reflns_av_R_equivalents   0.0325
_diffrn_reflns_av_sigmaI/netI     0.1015
_diffrn_reflns_limit_h_min        0
_diffrn_reflns_limit_h_max        10
_diffrn_reflns_limit_k_min        -12
_diffrn_reflns_limit_k_max        12
_diffrn_reflns_limit_l_min        -23
_diffrn_reflns_limit_l_max        23
_diffrn_reflns_theta_min          2.31
_diffrn_reflns_theta_max          27.50
_reflns_number_total              6093
_reflns_number_observed           3251
_reflns_observed_criterion        >2sigma(I)

_computing_data_collection        ?
_computing_cell_refinement        ?
_computing_data_reduction         ?
_computing_structure_solution     'SHELXS-86 (Sheldrick, 1990)'
_computing_structure_refinement   'SHELXL-93 (Sheldrick, 1993)'
_computing_molecular_graphics     ?
_computing_publication_material   ?

_refine_special_details
;
    Refinement on F^2^ for ALL reflections except for 1 with very negative F^2^
    or flagged by the user for potential systematic errors.  Weighted R-factors
    wR and all goodnesses of fit S are based on F^2^, conventional R-factors R
    are based on F, with F set to zero for negative F^2^. The observed criterion
    of F^2^ > 2sigma(F^2^) is used only for calculating _R_factor_obs 
etc. and is
    not relevant to the choice of reflections for refinement.  R-factors based
    on F^2^ are statistically about twice as large as those based on F, and R-
    factors based on ALL data will be even larger.
;

_refine_ls_structure_factor_coef  Fsqd
_refine_ls_matrix_type            full
_refine_ls_weighting_scheme
    'calc w=1/[\s^2^(Fo^2^)+(0.0812P)^2^+0.4500P] where P=(Fo^2^+2Fc^2^)/3'
_atom_sites_solution_primary      direct
_atom_sites_solution_secondary    difmap
_atom_sites_solution_hydrogens    geom
_refine_ls_hydrogen_treatment     ?
_refine_ls_extinction_method      none
_refine_ls_extinction_coef        ?
_refine_ls_number_reflns          6092
_refine_ls_number_parameters      364
_refine_ls_number_restraints      0
_refine_ls_R_factor_all           0.1406
_refine_ls_R_factor_obs           0.0632
_refine_ls_wR_factor_all          0.1850
_refine_ls_wR_factor_obs          0.1429
_refine_ls_goodness_of_fit_all    1.022
_refine_ls_goodness_of_fit_obs    1.104
_refine_ls_restrained_S_all       1.024
_refine_ls_restrained_S_obs       1.104
_refine_ls_shift/esd_max          0.001
_refine_ls_shift/esd_mean         0.000

loop_
    _atom_site_label
    _atom_site_type_symbol
    _atom_site_fract_x
    _atom_site_fract_y
    _atom_site_fract_z
    _atom_site_U_iso_or_equiv
    _atom_site_thermal_displace_type
    _atom_site_occupancy
    _atom_site_calc_flag
    _atom_site_refinement_flags
    _atom_site_disorder_group
V V 0.39212(9) 0.34230(9) 0.22554(4) 0.0328(2) Uani 1 d . .
Cl Cl 0.56849(14) 0.35801(14) 0.31067(7) 0.0443(3) Uani 1 d . .
Cl1 Cl 0.2051(2) -0.2931(2) 0.50206(10) 0.0936(7) Uani 1 d . .
O1 O 0.5270(4) 0.3570(4) 0.1492(2) 0.0424(8) Uani 1 d . .
O1W O -0.1099(7) 0.7926(8) 0.4098(3) 0.128(3) Uani 1 d . .
O2W O 0.3622(9) 0.3782(9) 0.5104(4) 0.150(3) Uani 1 d . .
O3W O 0.3518(11) -0.0324(7) 0.5500(4) 0.153(3) Uani 1 d . .
N N 0.1615(5) 0.3153(4) 0.3320(2) 0.0370(9) Uani 1 d . .
N11 N 0.4113(5) 0.1273(4) 0.2733(2) 0.0386(9) Uani 1 d . .
N12 N 0.3498(6) -0.0612(5) 0.3644(3) 0.0521(11) Uani 1 d . .
H12B H 0.3042(6) -0.1115(5) 0.4065(3) 0.133(33) Uiso 1 calc R .
N21 N 0.2673(5) 0.5444(4) 0.2298(2) 0.0364(9) Uani 1 d . .
N22 N 0.0941(5) 0.7016(5) 0.2861(2) 0.0473(11) Uani 1 d . .
H22B H 0.0240(5) 0.7365(5) 0.3205(2) 0.069(19) Uiso 1 calc R .
N31 N 0.1808(4) 0.3222(4) 0.1806(2) 0.0352(9) Uani 1 d . .
N32 N -0.0933(5) 0.3076(4) 0.1838(2) 0.0393(10) Uani 1 d . .
H32B H -0.2001(5) 0.3017(4) 0.2017(2) 0.037(13) Uiso 1 calc R .
C11 C 0.5019(6) 0.0074(5) 0.2503(3) 0.0395(11) Uani 1 d . .
C12 C 0.6156(7) -0.0066(6) 0.1846(3) 0.0493(13) Uani 1 d . .
H12A H 0.6411(7) 0.0728(6) 0.1465(3) 0.044(14) Uiso 1 calc R .
C13 C 0.6891(8) -0.1415(7) 0.1777(4) 0.064(2) Uani 1 d . .
H13A H 0.7671(8) -0.1536(7) 0.1347(4) 0.098(24) Uiso 1 calc R .
C14 C 0.6474(9) -0.2621(7) 0.2354(4) 0.069(2) Uani 1 d . .
H14A H 0.6970(9) -0.3520(7) 0.2287(4) 0.075(20) Uiso 1 calc R .
C15 C 0.5368(8) -0.2509(6) 0.3006(4) 0.062(2) Uani 1 d . .
H15A H 0.5108(8) -0.3305(6) 0.3385(4) 0.074(19) Uiso 1 calc R .
C16 C 0.4649(7) -0.1132(6) 0.3070(3) 0.0477(12) Uani 1 d . .
C17 C 0.3236(6) 0.0808(6) 0.3419(3) 0.0429(12) Uani 1 d . .
C18 C 0.2216(7) 0.1836(6) 0.3872(3) 0.0460(13) Uani 1 d . .
H18A H 0.1237(7) 0.1433(6) 0.4200(3) 0.040(13) Uiso 1 calc R .
H18B H 0.2933(7) 0.2047(6) 0.4186(3) 0.066(18) Uiso 1 calc R .
C21 C 0.2607(6) 0.6770(5) 0.1782(3) 0.0355(10) Uani 1 d . .
C22 C 0.3405(6) 0.7154(6) 0.1028(3) 0.0429(12) Uani 1 d . .
H22A H 0.4119(6) 0.6487(6) 0.0790(3) 0.038(13) Uiso 1 calc R .
C23 C 0.3091(8) 0.8552(6) 0.0657(3) 0.0532(14) Uani 1 d . .
H23A H 0.3607(8) 0.8843(6) 0.0156(3) 0.103(25) Uiso 1 calc R .
C24 C 0.2017(8) 0.9542(6) 0.1011(3) 0.064(2) Uani 1 d . .
H24A H 0.1824(8) 1.0481(6) 0.0738(3) 0.075(19) Uiso 1 calc R .
C25 C 0.1217(8) 0.9186(6) 0.1759(4) 0.062(2) Uani 1 d . .
H25A H 0.0512(8) 0.9861(6) 0.1995(4) 0.067(18) Uiso 1 calc R .
C26 C 0.1530(6) 0.7766(5) 0.2133(3) 0.0427(12) Uani 1 d . .
C27 C 0.1655(6) 0.5669(5) 0.2930(3) 0.0394(11) Uani 1 d . .
C28 C 0.1426(6) 0.4459(5) 0.3612(2) 0.0421(12) Uani 1 d . .
H28A H 0.2294(6) 0.4367(5) 0.3931(2) 0.044(14) Uiso 1 calc R .
H28B H 0.0294(6) 0.4616(5) 0.3908(2) 0.058(16) Uiso 1 calc R .
C31 C 0.1549(5) 0.3243(5) 0.1070(2) 0.0337(10) Uani 1 d . .
C32 C 0.2712(6) 0.3346(5) 0.0394(2) 0.0373(11) Uani 1 d . .
H32A H 0.3866(6) 0.3415(5) 0.0377(2) 0.028(11) Uiso 1 calc R .
C33 C 0.2066(6) 0.3339(6) -0.0242(3) 0.0449(12) Uani 1 d . .
H33A H 0.2800(6) 0.3415(6) -0.0703(3) 0.049(14) Uiso 1 calc R .
C34 C 0.0328(6) 0.3219(6) -0.0215(3) 0.0456(12) Uani 1 d . .
H34A H -0.0057(6) 0.3199(6) -0.0656(3) 0.055(15) Uiso 1 calc R .
C35 C -0.0817(6) 0.3130(5) 0.0447(3) 0.0421(11) Uani 1 d . .
H35A H -0.1972(6) 0.3066(5) 0.0463(3) 0.029(11) Uiso 1 calc R .
C36 C -0.0177(5) 0.3141(5) 0.1090(2) 0.0331(10) Uani 1 d . .
C37 C 0.0290(6) 0.3123(5) 0.2232(2) 0.0385(11) Uani 1 d . .
C38 C 0.0007(6) 0.3043(7) 0.3062(3) 0.0525(15) Uani 1 d . .
H38A H -0.0882(6) 0.3808(7) 0.3175(3) 0.050(15) Uiso 1 calc R .
H38B H -0.0390(6) 0.2149(7) 0.3335(3) 0.076(20) Uiso 1 calc R .

loop_
    _atom_site_aniso_label
    _atom_site_aniso_U_11
    _atom_site_aniso_U_22
    _atom_site_aniso_U_33
    _atom_site_aniso_U_23
    _atom_site_aniso_U_13
    _atom_site_aniso_U_12
V 0.0217(4) 0.0468(5) 0.0269(4) -0.0070(3) 0.0041(3) -0.0079(3)
Cl 0.0294(6) 0.0660(9) 0.0396(6) -0.0148(6) -0.0039(5) -0.0098(6)
Cl1 0.0769(12) 0.130(2) 0.0579(10) 0.0138(10) 0.0055(9) -0.0417(12)
O1 0.027(2) 0.063(2) 0.033(2) -0.011(2) 0.0098(13) -0.013(2)
O1W 0.104(4) 0.204(7) 0.086(4) -0.091(4) -0.016(3) 0.038(4)
O2W 0.106(5) 0.240(9) 0.100(5) -0.027(5) -0.020(4) -0.031(5)
O3W 0.178(7) 0.115(5) 0.154(6) -0.001(4) -0.049(6) -0.008(5)
N 0.027(2) 0.058(3) 0.025(2) -0.006(2) -0.002(2) -0.010(2)
N11 0.030(2) 0.048(2) 0.034(2) -0.008(2) 0.005(2) -0.009(2)
N12 0.059(3) 0.054(3) 0.039(2) -0.001(2) -0.002(2) -0.021(2)
N21 0.029(2) 0.048(2) 0.027(2) -0.005(2) 0.000(2) -0.002(2)
N22 0.040(2) 0.059(3) 0.038(2) -0.014(2) 0.003(2) 0.001(2)
N31 0.022(2) 0.055(2) 0.027(2) -0.007(2) 0.0015(15) -0.009(2)
N32 0.021(2) 0.068(3) 0.032(2) -0.017(2) 0.004(2) -0.013(2)
C11 0.037(3) 0.041(3) 0.041(3) -0.009(2) -0.010(2) -0.005(2)
C12 0.056(3) 0.049(3) 0.042(3) -0.013(3) 0.001(2) -0.011(3)
C13 0.066(4) 0.067(4) 0.064(4) -0.031(3) -0.006(3) -0.007(3)
C14 0.076(4) 0.051(4) 0.086(5) -0.027(3) -0.021(4) 0.000(3)
C15 0.074(4) 0.049(4) 0.067(4) -0.009(3) -0.016(3) -0.020(3)
C16 0.051(3) 0.050(3) 0.045(3) -0.009(2) -0.012(2) -0.014(3)
C17 0.040(3) 0.051(3) 0.035(2) -0.004(2) -0.003(2) -0.011(2)
C18 0.041(3) 0.061(3) 0.027(2) 0.000(2) 0.003(2) -0.006(2)
C21 0.031(2) 0.040(3) 0.035(2) -0.005(2) -0.008(2) -0.008(2)
C22 0.039(3) 0.055(3) 0.034(2) -0.008(2) 0.001(2) -0.016(2)
C23 0.064(4) 0.053(3) 0.042(3) -0.002(3) -0.008(3) -0.021(3)
C24 0.077(4) 0.044(3) 0.064(4) 0.003(3) -0.018(3) -0.010(3)
C25 0.067(4) 0.052(4) 0.065(4) -0.018(3) -0.007(3) -0.001(3)
C26 0.041(3) 0.048(3) 0.039(3) -0.013(2) -0.006(2) -0.001(2)
C27 0.030(2) 0.051(3) 0.034(2) -0.012(2) 0.003(2) 0.000(2)
C28 0.038(3) 0.062(3) 0.022(2) -0.009(2) 0.003(2) -0.007(2)
C31 0.028(2) 0.042(3) 0.029(2) -0.007(2) -0.002(2) -0.003(2)
C32 0.029(2) 0.052(3) 0.031(2) -0.011(2) 0.002(2) -0.012(2)
C33 0.038(3) 0.066(4) 0.030(2) -0.012(2) 0.002(2) -0.011(2)
C34 0.044(3) 0.063(3) 0.033(3) -0.014(2) -0.008(2) -0.010(3)
C35 0.032(2) 0.054(3) 0.043(3) -0.015(2) -0.007(2) -0.007(2)
C36 0.028(2) 0.040(3) 0.033(2) -0.008(2) -0.003(2) -0.008(2)
C37 0.026(2) 0.058(3) 0.030(2) -0.010(2) 0.001(2) -0.009(2)
C38 0.027(2) 0.099(5) 0.032(3) -0.016(3) 0.006(2) -0.020(3)

_geom_special_details
;
    All esds (except the esd in the dihedral angle between two l.s. planes)
    are estimated using the full covariance matrix.  The cell esds are taken
    into account individually in the estimation of esds in distances, angles
    and torsion angles; correlations between esds in cell parameters are only
    used when they are defined by crystal symmetry.  An approximate (isotropic)
    treatment of cell esds is used for estimating esds involving l.s. planes.
;

loop_
    _geom_bond_atom_site_label_1
    _geom_bond_atom_site_label_2
    _geom_bond_distance
    _geom_bond_site_symmetry_2
    _geom_bond_publ_flag
V O1 1.593(3) . ?
V N11 2.058(4) . ?
V N21 2.066(4) . ?
V N31 2.078(4) . ?
V Cl 2.3533(15) . ?
V N 2.417(4) . ?
N C38 1.483(6) . ?
N C18 1.489(6) . ?
N C28 1.491(6) . ?
N11 C17 1.334(6) . ?
N11 C11 1.387(6) . ?
N12 C17 1.338(7) . ?
N12 C16 1.400(7) . ?
N21 C27 1.332(5) . ?
N21 C21 1.399(6) . ?
N22 C27 1.326(6) . ?
N22 C26 1.393(6) . ?
N31 C37 1.317(5) . ?
N31 C31 1.409(5) . ?
N32 C37 1.339(6) . ?
N32 C36 1.387(5) . ?
C11 C12 1.390(7) . ?
C11 C16 1.398(7) . ?
C12 C13 1.376(8) . ?
C13 C14 1.416(9) . ?
C14 C15 1.366(9) . ?
C15 C16 1.396(8) . ?
C17 C18 1.504(7) . ?
C21 C26 1.388(6) . ?
C21 C22 1.400(6) . ?
C22 C23 1.367(7) . ?
C23 C24 1.386(8) . ?
C24 C25 1.389(8) . ?
C25 C26 1.388(7) . ?
C27 C28 1.500(6) . ?
C31 C36 1.393(6) . ?
C31 C32 1.397(6) . ?
C32 C33 1.374(6) . ?
C33 C34 1.405(7) . ?
C34 C35 1.371(6) . ?
C35 C36 1.383(6) . ?
C37 C38 1.489(6) . ?

loop_
    _geom_angle_atom_site_label_1
    _geom_angle_atom_site_label_2
    _geom_angle_atom_site_label_3
    _geom_angle
    _geom_angle_site_symmetry_1
    _geom_angle_site_symmetry_3
    _geom_angle_publ_flag
O1 V N11 105.1(2) . . ?
O1 V N21 107.1(2) . . ?
N11 V N21 147.72(14) . . ?
O1 V N31 97.5(2) . . ?
N11 V N31 87.5(2) . . ?
N21 V N31 85.6(2) . . ?
O1 V Cl 100.25(13) . . ?
N11 V Cl 87.88(12) . . ?
N21 V Cl 89.28(11) . . ?
N31 V Cl 162.29(10) . . ?
O1 V N 172.6(2) . . ?
N11 V N 74.47(14) . . ?
N21 V N 73.28(14) . . ?
N31 V N 75.15(13) . . ?
Cl V N 87.14(10) . . ?
C38 N C18 111.9(4) . . ?
C38 N C28 111.2(4) . . ?
C18 N C28 112.7(4) . . ?
C38 N V 109.8(3) . . ?
C18 N V 105.7(3) . . ?
C28 N V 105.1(3) . . ?
C17 N11 C11 106.3(4) . . ?
C17 N11 V 119.6(3) . . ?
C11 N11 V 134.1(3) . . ?
C17 N12 C16 107.7(4) . . ?
C27 N21 C21 105.6(4) . . ?
C27 N21 V 119.9(3) . . ?
C21 N21 V 134.5(3) . . ?
C27 N22 C26 107.8(4) . . ?
C37 N31 C31 105.6(4) . . ?
C37 N31 V 120.9(3) . . ?
C31 N31 V 133.5(3) . . ?
C37 N32 C36 108.1(3) . . ?
N11 C11 C12 130.9(5) . . ?
N11 C11 C16 108.8(4) . . ?
C12 C11 C16 120.2(5) . . ?
C13 C12 C11 118.0(5) . . ?
C12 C13 C14 120.7(6) . . ?
C15 C14 C13 122.3(6) . . ?
C14 C15 C16 116.1(6) . . ?
C15 C16 C11 122.6(5) . . ?
C15 C16 N12 132.2(5) . . ?
C11 C16 N12 105.3(5) . . ?
N11 C17 N12 111.9(4) . . ?
N11 C17 C18 120.9(4) . . ?
N12 C17 C18 127.1(4) . . ?
N C18 C17 107.0(4) . . ?
C26 C21 N21 108.5(4) . . ?
C26 C21 C22 121.2(4) . . ?
N21 C21 C22 130.3(4) . . ?
C23 C22 C21 117.3(5) . . ?
C22 C23 C24 121.3(5) . . ?
C23 C24 C25 122.5(5) . . ?
C26 C25 C24 116.1(5) . . ?
C25 C26 C21 121.6(5) . . ?
C25 C26 N22 132.6(5) . . ?
C21 C26 N22 105.7(4) . . ?
N22 C27 N21 112.4(4) . . ?
N22 C27 C28 127.5(4) . . ?
N21 C27 C28 120.1(4) . . ?
N C28 C27 106.5(4) . . ?
C36 C31 C32 121.2(4) . . ?
C36 C31 N31 108.6(4) . . ?
C32 C31 N31 130.2(4) . . ?
C33 C32 C31 116.7(4) . . ?
C32 C33 C34 121.7(4) . . ?
C35 C34 C33 121.6(5) . . ?
C34 C35 C36 117.0(5) . . ?
C35 C36 N32 133.0(4) . . ?
C35 C36 C31 121.8(4) . . ?
N32 C36 C31 105.2(4) . . ?
N31 C37 N32 112.5(4) . . ?
N31 C37 C38 122.8(4) . . ?
N32 C37 C38 124.7(4) . . ?
N C38 C37 111.3(4) . . ?

_refine_diff_density_max    0.592
_refine_diff_density_min   -0.346
_refine_diff_density_rms    0.078

#===END

